NAME: n20q20B.tsp, 20 nodes, semilla 111
COMMENT: Problema aleatorio de norma euclidea
DIMENSION: 20
CAPACITY: 20
EDGE_WEIGHT_TYPE: EUC_2D
NODE_COORD_SECTION
1   0.0000   0.0000
2 -355.0000 -98.0000
3 -243.0000 -186.0000
4 181.0000 394.0000
5 -229.0000 -332.0000
6  37.0000 -270.0000
7 -277.0000 -295.0000
8 416.0000 459.0000
9 -362.0000 -232.0000
10 -398.0000 355.0000
11 -21.0000  99.0000
12  72.0000 -354.0000
13 -405.0000 -366.0000
14 -67.0000 489.0000
15 302.0000 -433.0000
16 -239.0000 333.0000
17 -259.0000 372.0000
18  92.0000 -410.0000
19 -200.0000 367.0000
20 405.0000 -75.0000
DISPLAY_DATA_SECTION:
 1  250  250
 2   72  201
 3  128  157
 4  340  447
 5  135   84
 6  268  115
 7  111  102
 8  458  479
 9   69  134
10   51  427
11  239  299
12  286   73
13   47   67
14  216  494
15  401   33
16  130  416
17  120  436
18  296   45
19  150  433
20  452  212
DEMAND_SECTION
1 8
2 -3
3 0
4 -3
5 1
6 0
7 -4
8 1
9 1
10 5
11 -5
12 2
13 -4
14 -8
15 6
16 1
17 5
18 -6
19 10
20 -7
EOF